n_res = 5;
n_events = 22;
n_prec = 42;
source = 1;
sink = 22;
min_lvl = [-6, -2, -11, 1, -1];
max_lvl = [2, 3, 0, 7, 4];
rr = [| 0, 0, -1, 2, 2, 0, 0, -1, 1, -2, -2, 1, 0, -2, 0, -1, -1, 0, 1, 0, -2, 0
      | 0, 0, 0, 1, -1, -2, 0, 1, 2, 0, 1, -2, 0, 0, 2, -1, 0, 0, 0, 0, 0, 0
      | 0, -1, -1, 2, -1, -2, -1, -2, -1, 1, -2, 2, 0, -1, -1, 0, -2, 1, 0, 0, 0, 0
      | 0, 0, 1, 0, 0, 0, 0, -2, 2, 0, -2, -1, 1, -1, 0, 2, 0, 2, 1, 0, 0, 0
      | 0, -1, 0, 0, -1, 2, -1, 1, 0, 2, 0, -1, 0, 1, 0, 2, 0, 0, -2, 1, 0, 0 |];
prec = [| 1, 0, 2
        | 1, 0, 3
        | 1, 0, 4
        | 2, 12, 7
        | 3, 8, 18
        | 3, -6, 19
        | 4, 10, 5
        | 5, 6, 13
        | 6, 18, 15
        | 7, 2, 11
        | 8, 24, 14
        | 9, -1, 17
        | 9, -42, 10
        | 10, -6, 12
        | 10, 1, 21
        | 10, 6, 9
        | 11, 7, 22
        | 11, -4, 20
        | 12, -96, 9
        | 12, -4, 21
        | 12, -74, 14
        | 12, -91, 16
        | 12, 5, 22
        | 13, -7, 6
        | 14, -52, 16
        | 14, -76, 8
        | 14, -85, 3
        | 14, 5, 12
        | 14, 4, 22
        | 15, 6, 20
        | 16, -61, 3
        | 16, 2, 21
        | 16, 2, 8
        | 17, -67, 10
        | 17, 0, 19
        | 18, 10, 10
        | 18, 27, 9
        | 19, 3, 16
        | 19, -71, 10
        | 19, -40, 9
        | 20, 5, 22
        | 21, 1, 22 |];
